outputs/r107.txt.out
filename: R107
Vehicles: 25, Capacity: 200
Total customers : 101
No of routes: 23
Route #1: 27 28 53 58
Route #2: 40 21 72 75 74 73
Route #3: 56
Route #4: 39 67 4
Route #5: 23 41 22 54 80 12 26
Route #6: 55 25
Route #7: 68 77
Route #8: 76 50 1
Route #9: 69 79 3
Route #10: 33 81 51 9 71 35
Route #11: 78 65 34 29 24
Route #12: 13 97 95 94
Route #13: 92 59 99 5 84 17 60 18
Route #14: 52 46 8 83
Route #15: 45 82 7 88 31 70
Route #16: 30 20 66
Route #17: 10 62 19 11 63 90 32
Route #18: 48 47 36 49
Route #19: 64 85 93 96
Route #20: 61 16 86 44 38 14 91 100 37 98
Route #21: 87
Route #22: 2 57 42
Route #23: 15 43 6 89
Cost 1719
